67
26
0 26 27 28 29 30 32 33 34 37 38 40 43 45 47 50 51 53 54 55 58 59 60 61 63 66
1 26 28 29 30 32 34 36 37 38 39 41 43 45 48 49 50 51 52 53 54 55 56 57 59 60 61 62 66
2 26 28 29 30 33 34 36 38 39 40 42 43 46 47 48 49 50 51 52 54 55 57 58 59 60 63 66
3 26 27 29 33 36 37 39 41 43 45 47 49 50 51 52 53 55 57 60 61 66
4 26 27 28 29 34 36 37 39 41 43 45 48 53 55 57 59 61 62 63 66
5 26 28 29 32 33 34 37 39 40 43 48 51 53 55 57 58 59 60 61 66
6 29 30 33 35 36 37 38 43 48 49 51 53 55 59 60 61 62 66
7 26 27 28 29 30 34 38 40 42 43 45 47 48 49 50 52 53 54 55 59 60 61 65
8 26 27 28 29 33 38 39 45 48 49 50 53 57 60 61 63 66
9 26 27 28 29 30 36 39 40 45 49 50 51 55 56 57 59 60 63 64
10 27 28 29 31 33 36 39 40 47 49 51 52 53 54 55 56 57 59 61 63 66
11 29 30 32 33 34 35 36 38 40 43 45 47 49 52 54 55 56 58 59 61 63 66
12 26 27 30 32 33 34 36 37 38 39 44 45 47 49 53 54 55 59 61 62 63
13 26 27 30 33 37 38 39 42 43 44 47 48 50 51 52 54 60 62 63
14 26 32 36 37 40 43 48 49 50 55 57 58 59 60 61 63
15 28 29 30 32 33 34 36 37 39 40 41 45 50 53 59 60
16 26 27 28 30 32 37 38 40 41 43 45 46 47 49 51 52 53 56 57 58 59 62
17 27 28 29 32 34 39 40 43 51 53 61 66
18 27 29 33 41 50 51 52 54 57 58 59 60 62 63 66
19 26 27 34 36 38 43 47 50 53 56 57
20 26 28 29 34 38 39 41 48 51 57 60 65 66
21 30 32 35 41 43 56
22 41 44
23 33 53 60 62
24 26 33 45
25
